4 
5  00 20 36 51 
6  09 23 38 53 
7  08 23 38 53 
8  08 23 38 53 
9  08 23 38 53 
10  08 23 38 53 
11  08 23 38 53 
12  08 23 38 53 
13  08 23 38 53 
14  08 23 38 53 
15  08 23 38 53 
16  08 23 38 53 
17  08 23 38 53 
18  08 23 38 53 
19  08 23 38 53 
20  08 23 35 50 
21  05 20 35 50 
22  05 20 35 51 
23  07 
0 
